c nIsolatedPIs 0
c maxPI 32
p cnf 195 490
c gate 33 -9 -25 0
-9 -33 0
-25 -33 0
9 25 33 0
c gate 34 8 -24 0
8 -34 0
-24 -34 0
-8 24 34 0
c gate 35 -8 24 0
-8 -35 0
24 -35 0
8 -24 35 0
c gate 36 -34 -35 0
-34 -36 0
-35 -36 0
34 35 36 0
c gate 37 7 23 0
7 -37 0
23 -37 0
-7 -23 37 0
c gate 38 4 20 0
4 -38 0
20 -38 0
-4 -20 38 0
c gate 39 3 19 0
3 -39 0
19 -39 0
-3 -19 39 0
c gate 40 -38 -39 0
-38 -40 0
-39 -40 0
38 39 40 0
c gate 41 1 17 0
1 -41 0
17 -41 0
-1 -17 41 0
c gate 42 2 18 0
2 -42 0
18 -42 0
-2 -18 42 0
c gate 43 -41 -42 0
-41 -43 0
-42 -43 0
41 42 43 0
c gate 44 -3 -19 0
-3 -44 0
-19 -44 0
3 19 44 0
c gate 45 -43 -44 0
-43 -45 0
-44 -45 0
43 44 45 0
c gate 46 40 -45 0
40 -46 0
-45 -46 0
-40 45 46 0
c gate 47 -5 -21 0
-5 -47 0
-21 -47 0
5 21 47 0
c gate 48 -4 -20 0
-4 -48 0
-20 -48 0
4 20 48 0
c gate 49 -47 -48 0
-47 -49 0
-48 -49 0
47 48 49 0
c gate 50 -46 49 0
-46 -50 0
49 -50 0
46 -49 50 0
c gate 51 -2 -18 0
-2 -51 0
-18 -51 0
2 18 51 0
c gate 52 40 51 0
40 -52 0
51 -52 0
-40 -51 52 0
c gate 53 50 -52 0
50 -53 0
-52 -53 0
-50 52 53 0
c gate 54 5 21 0
5 -54 0
21 -54 0
-5 -21 54 0
c gate 55 6 22 0
6 -55 0
22 -55 0
-6 -22 55 0
c gate 56 -54 -55 0
-54 -56 0
-55 -56 0
54 55 56 0
c gate 57 -53 56 0
-53 -57 0
56 -57 0
53 -56 57 0
c gate 58 -50 57 0
-50 -58 0
57 -58 0
50 -57 58 0
c gate 59 -7 -23 0
-7 -59 0
-23 -59 0
7 23 59 0
c gate 60 -58 -59 0
-58 -60 0
-59 -60 0
58 59 60 0
c gate 61 -37 -60 0
-37 -61 0
-60 -61 0
37 60 61 0
c gate 62 -36 -61 0
-36 -62 0
-61 -62 0
36 61 62 0
c gate 63 8 24 0
8 -63 0
24 -63 0
-8 -24 63 0
c gate 64 -62 -63 0
-62 -64 0
-63 -64 0
62 63 64 0
c gate 65 -33 -64 0
-33 -65 0
-64 -65 0
33 64 65 0
c gate 66 10 26 0
10 -66 0
26 -66 0
-10 -26 66 0
c gate 67 9 25 0
9 -67 0
25 -67 0
-9 -25 67 0
c gate 68 -66 -67 0
-66 -68 0
-67 -68 0
66 67 68 0
c gate 69 -65 68 0
-65 -69 0
68 -69 0
65 -68 69 0
c gate 70 -10 -26 0
-10 -70 0
-26 -70 0
10 26 70 0
c gate 71 -11 -27 0
-11 -71 0
-27 -71 0
11 27 71 0
c gate 72 -70 -71 0
-70 -72 0
-71 -72 0
70 71 72 0
c gate 73 -69 72 0
-69 -73 0
72 -73 0
69 -72 73 0
c gate 74 11 27 0
11 -74 0
27 -74 0
-11 -27 74 0
c gate 75 12 28 0
12 -75 0
28 -75 0
-12 -28 75 0
c gate 76 -74 -75 0
-74 -76 0
-75 -76 0
74 75 76 0
c gate 77 -73 76 0
-73 -77 0
76 -77 0
73 -76 77 0
c gate 78 -6 -22 0
-6 -78 0
-22 -78 0
6 22 78 0
c gate 79 -57 -78 0
-57 -79 0
-78 -79 0
57 78 79 0
c gate 80 -37 -79 0
-37 -80 0
-79 -80 0
37 79 80 0
c gate 81 -59 -80 0
-59 -81 0
-80 -81 0
59 80 81 0
c gate 82 -36 81 0
-36 -82 0
81 -82 0
36 -81 82 0
c gate 83 -63 -67 0
-63 -83 0
-67 -83 0
63 67 83 0
c gate 84 -82 83 0
-82 -84 0
83 -84 0
82 -83 84 0
c gate 85 -33 -70 0
-33 -85 0
-70 -85 0
33 70 85 0
c gate 86 -84 85 0
-84 -86 0
85 -86 0
84 -85 86 0
c gate 87 -66 -74 0
-66 -87 0
-74 -87 0
66 74 87 0
c gate 88 -86 87 0
-86 -88 0
87 -88 0
86 -87 88 0
c gate 89 -12 -28 0
-12 -89 0
-28 -89 0
12 28 89 0
c gate 90 -71 -89 0
-71 -90 0
-89 -90 0
71 89 90 0
c gate 91 -88 90 0
-88 -91 0
90 -91 0
88 -90 91 0
c gate 92 14 -30 0
14 -92 0
-30 -92 0
-14 30 92 0
c gate 93 -14 30 0
-14 -93 0
30 -93 0
14 -30 93 0
c gate 94 -92 -93 0
-92 -94 0
-93 -94 0
92 93 94 0
c gate 95 -16 -32 0
-16 -95 0
-32 -95 0
16 32 95 0
c gate 96 16 32 0
16 -96 0
32 -96 0
-16 -32 96 0
c gate 97 -95 -96 0
-95 -97 0
-96 -97 0
95 96 97 0
c gate 98 -94 97 0
-94 -98 0
97 -98 0
94 -97 98 0
c gate 99 12 -28 0
12 -99 0
-28 -99 0
-12 28 99 0
c gate 100 -12 28 0
-12 -100 0
28 -100 0
12 -28 100 0
c gate 101 -99 -100 0
-99 -101 0
-100 -101 0
99 100 101 0
c gate 102 15 -31 0
15 -102 0
-31 -102 0
-15 31 102 0
c gate 103 -15 31 0
-15 -103 0
31 -103 0
15 -31 103 0
c gate 104 -102 -103 0
-102 -104 0
-103 -104 0
102 103 104 0
c gate 105 -13 29 0
-13 -105 0
29 -105 0
13 -29 105 0
c gate 106 13 -29 0
13 -106 0
-29 -106 0
-13 29 106 0
c gate 107 -105 -106 0
-105 -107 0
-106 -107 0
105 106 107 0
c gate 108 -104 -107 0
-104 -108 0
-107 -108 0
104 107 108 0
c gate 109 -101 108 0
-101 -109 0
108 -109 0
101 -108 109 0
c gate 110 98 109 0
98 -110 0
109 -110 0
-98 -109 110 0
c gate 111 -91 110 0
-91 -111 0
110 -111 0
91 -110 111 0
c gate 112 -77 111 0
-77 -112 0
111 -112 0
77 -111 112 0
c gate 113 36 -81 0
36 -113 0
-81 -113 0
-36 81 113 0
c gate 114 -82 -113 0
-82 -114 0
-113 -114 0
82 113 114 0
c gate 115 36 61 0
36 -115 0
61 -115 0
-36 -61 115 0
c gate 116 -62 -115 0
-62 -116 0
-115 -116 0
62 115 116 0
c gate 117 114 -116 0
114 -117 0
-116 -117 0
-114 116 117 0
c gate 118 -112 117 0
-112 -118 0
117 -118 0
112 -117 118 0
c gate 119 41 42 0
41 -119 0
42 -119 0
-41 -42 119 0
c gate 120 -58 -79 0
-58 -120 0
-79 -120 0
58 79 120 0
c gate 121 119 -120 0
119 -121 0
-120 -121 0
-119 120 121 0
c gate 122 60 80 0
60 -122 0
80 -122 0
-60 -80 122 0
c gate 123 -121 -122 0
-121 -123 0
-122 -123 0
121 122 123 0
c gate 124 -114 116 0
-114 -124 0
116 -124 0
114 -116 124 0
c gate 125 -123 -124 0
-123 -125 0
-124 -125 0
123 124 125 0
c gate 126 -118 125 0
-118 -126 0
125 -126 0
118 -125 126 0
c gate 127 94 105 0
94 -127 0
105 -127 0
-94 -105 127 0
c gate 128 11 -27 0
11 -128 0
-27 -128 0
-11 27 128 0
c gate 129 -10 26 0
-10 -129 0
26 -129 0
10 -26 129 0
c gate 130 10 -26 0
10 -130 0
-26 -130 0
-10 26 130 0
c gate 131 -9 25 0
-9 -131 0
25 -131 0
9 -25 131 0
c gate 132 7 -23 0
7 -132 0
-23 -132 0
-7 23 132 0
c gate 133 -6 22 0
-6 -133 0
22 -133 0
6 -22 133 0
c gate 134 2 -18 0
2 -134 0
-18 -134 0
-2 18 134 0
c gate 135 -1 17 0
-1 -135 0
17 -135 0
1 -17 135 0
c gate 136 -134 135 0
-134 -136 0
135 -136 0
134 -135 136 0
c gate 137 -3 19 0
-3 -137 0
19 -137 0
3 -19 137 0
c gate 138 -2 18 0
-2 -138 0
18 -138 0
2 -18 138 0
c gate 139 -137 -138 0
-137 -139 0
-138 -139 0
137 138 139 0
c gate 140 -136 139 0
-136 -140 0
139 -140 0
136 -139 140 0
c gate 141 4 -20 0
4 -141 0
-20 -141 0
-4 20 141 0
c gate 142 3 -19 0
3 -142 0
-19 -142 0
-3 19 142 0
c gate 143 -141 -142 0
-141 -143 0
-142 -143 0
141 142 143 0
c gate 144 -140 143 0
-140 -144 0
143 -144 0
140 -143 144 0
c gate 145 -5 21 0
-5 -145 0
21 -145 0
5 -21 145 0
c gate 146 -4 20 0
-4 -146 0
20 -146 0
4 -20 146 0
c gate 147 -145 -146 0
-145 -147 0
-146 -147 0
145 146 147 0
c gate 148 -144 147 0
-144 -148 0
147 -148 0
144 -147 148 0
c gate 149 6 -22 0
6 -149 0
-22 -149 0
-6 22 149 0
c gate 150 5 -21 0
5 -150 0
-21 -150 0
-5 21 150 0
c gate 151 -149 -150 0
-149 -151 0
-150 -151 0
149 150 151 0
c gate 152 -148 151 0
-148 -152 0
151 -152 0
148 -151 152 0
c gate 153 -133 -152 0
-133 -153 0
-152 -153 0
133 152 153 0
c gate 154 -132 -153 0
-132 -154 0
-153 -154 0
132 153 154 0
c gate 155 -7 23 0
-7 -155 0
23 -155 0
7 -23 155 0
c gate 156 -35 -155 0
-35 -156 0
-155 -156 0
35 155 156 0
c gate 157 -154 156 0
-154 -157 0
156 -157 0
154 -156 157 0
c gate 158 9 -25 0
9 -158 0
-25 -158 0
-9 25 158 0
c gate 159 -34 -158 0
-34 -159 0
-158 -159 0
34 158 159 0
c gate 160 -157 159 0
-157 -160 0
159 -160 0
157 -159 160 0
c gate 161 -131 -160 0
-131 -161 0
-160 -161 0
131 160 161 0
c gate 162 -130 -161 0
-130 -162 0
-161 -162 0
130 161 162 0
c gate 163 -129 -162 0
-129 -163 0
-162 -163 0
129 162 163 0
c gate 164 -128 -163 0
-128 -164 0
-163 -164 0
128 163 164 0
c gate 165 -11 27 0
-11 -165 0
27 -165 0
11 -27 165 0
c gate 166 -100 -165 0
-100 -166 0
-165 -166 0
100 165 166 0
c gate 167 -164 166 0
-164 -167 0
166 -167 0
164 -166 167 0
c gate 168 -99 -167 0
-99 -168 0
-167 -168 0
99 167 168 0
c gate 169 -92 -106 0
-92 -169 0
-106 -169 0
92 106 169 0
c gate 170 168 169 0
168 -170 0
169 -170 0
-168 -169 170 0
c gate 171 -93 -103 0
-93 -171 0
-103 -171 0
93 103 171 0
c gate 172 -170 171 0
-170 -172 0
171 -172 0
170 -171 172 0
c gate 173 -127 172 0
-127 -173 0
172 -173 0
127 -172 173 0
c gate 174 -102 -173 0
-102 -174 0
-173 -174 0
102 173 174 0
c gate 175 -97 174 0
-97 -175 0
174 -175 0
97 -174 175 0
c gate 176 97 -174 0
97 -176 0
-174 -176 0
-97 174 176 0
c gate 177 -175 -176 0
-175 -177 0
-176 -177 0
175 176 177 0
c gate 178 -97 -172 0
-97 -178 0
-172 -178 0
97 172 178 0
c gate 179 97 172 0
97 -179 0
172 -179 0
-97 -172 179 0
c gate 180 -178 -179 0
-178 -180 0
-179 -180 0
178 179 180 0
c gate 181 177 -180 0
177 -181 0
-180 -181 0
-177 180 181 0
c gate 182 -177 180 0
-177 -182 0
180 -182 0
177 -180 182 0
c gate 183 104 127 0
104 -183 0
127 -183 0
-104 -127 183 0
c gate 184 -168 183 0
-168 -184 0
183 -184 0
168 -183 184 0
c gate 185 105 -168 0
105 -185 0
-168 -185 0
-105 168 185 0
c gate 186 126 -185 0
126 -186 0
-185 -186 0
-126 185 186 0
c gate 187 -184 -186 0
-184 -187 0
-186 -187 0
184 186 187 0
c gate 188 -182 187 0
-182 -188 0
187 -188 0
182 -187 188 0
c gate 189 -181 -188 0
-181 -189 0
-188 -189 0
181 188 189 0
c gate 190 126 -189 0
126 -190 0
-189 -190 0
-126 189 190 0
c gate 191 41 51 0
41 -191 0
51 -191 0
-41 -51 191 0
c gate 192 -120 -191 0
-120 -192 0
-191 -192 0
120 191 192 0
c gate 193 -112 -192 0
-112 -193 0
-192 -193 0
112 192 193 0
c gate 194 189 193 0
189 -194 0
193 -194 0
-189 -193 194 0
c gate 195 -190 -194 0
-190 -195 0
-194 -195 0
190 194 195 0
c PO
-195 0
